Linux optc-09-08 4.15.0-58-generic #64-Ubuntu SMP Tue Aug 6 11:12:41 UTC 2019 x86_64 x86_64 x86_64 GNU/Linux

top - 16:41:32 up 1 day,  6:42,  0 users,  load average: 0,92, 0,98, 0,99
Tasks: 292 gesamt,   1 laufend, 149 schlafend,   0 gestoppt,   0 Zombie
%CPU(s):  7,4 be,  0,2 sy,  0,0 ni, 92,4 un,  0,0 wa,  0,0 hi,  0,0 si,  0,0 st
KiB Spch : 97514992 gesamt, 95508720 frei,   645812 belegt,  1360460 Puff/Cache
KiB Swap:  8388604 gesamt,  8388604 frei,        0 belegt. 96127184 verfü Spch 

  PID USER      PR  NI    VIRT    RES    SHR S  %CPU %MEM     ZEIT+ BEFEHL
22855 bzfhende  20   0   52664   4248   3496 R   6,2  0,0   0:00.01 top
    1 root      20   0  233840   9364   6636 S   0,0  0,0   0:10.28 systemd
    2 root      20   0       0      0      0 S   0,0  0,0   0:00.11 kthreadd
    4 root       0 -20       0      0      0 I   0,0  0,0   0:00.00 kworker/0:+
    6 root      20   0       0      0      0 I   0,0  0,0   0:00.00 kworker/u3+
    7 root       0 -20       0      0      0 I   0,0  0,0   0:00.00 mm_percpu_+
    8 root      20   0       0      0      0 S   0,0  0,0   0:00.00 ksoftirqd/0
    9 root      20   0       0      0      0 I   0,0  0,0   0:10.55 rcu_sched

hard time limit: 04:10:00
hard mem limit: 55100

SLURM jobID: 2182348

@01 /nfs/optimi/kombadon/IP/miplib2017/neos-4532248-waihi.mps.gz ===========
-----------------------------
Do 22. Aug 16:41:32 CEST 2019
-----------------------------
@03 1566484892
@05 7200
SCIP version 6.0.0 [precision: 8 byte] [memory: block] [mode: optimized] [LP solver: CPLEX 12.8.0.0] [GitHash: 41ab6e0014]
Copyright (C) 2002-2018 Konrad-Zuse-Zentrum fuer Informationstechnik Berlin (ZIB)

External codes: 
  Readline 7.0         GNU library for command line editing (gnu.org/s/readline)
  CPLEX 12.8.0.0       Linear Programming Solver developed by IBM (www.cplex.com)
  CppAD 20180000.0     Algorithmic Differentiation of C++ algorithms developed by B. Bell (www.coin-or.org/CppAD)
  ZLIB 1.2.11          General purpose compression library by J. Gailly and M. Adler (zlib.net)
  GMP 6.1.2            GNU Multiple Precision Arithmetic Library developed by T. Granlund (gmplib.org)
  bliss 0.73p          Computing Graph Automorphism Groups by T. Junttila and P. Kaski (http://www.tcs.hut.fi/Software/bliss/)

user parameter file <scip.set> not found - using default parameters

SCIP> 
SCIP> set load /home/optimi/bzfhende/opti/scip-opti/check/../settings/enable_treeeprofile.set
loaded parameter file </home/optimi/bzfhende/opti/scip-opti/check/../settings/enable_treeprofile.set>
SCIP> set misc referencevalue 61.6
misc/referencevalue = 61.6
SCIP> set limits time 7200
limits/time = 7200
SCIP> set limits nodes 2100000000
limits/nodes = 2100000000
SCIP> set limits memory 50000
limits/memory = 50000
SCIP> set lp advanced threads 1
lp/threads = 1
SCIP> set timing clocktype 1
timing/clocktype = 1
SCIP> set display freq 10000
display/freq = 10000
SCIP> set memory savefac 1.0
memory/savefac = 1
SCIP> set save /home/optimi/bzfhende/opti/scip-opti/check/treesize.estimation.jouurnal.3/bzfhende.miplib2017.124_neos-4532248-waihi.scip.M640.enable_treeprofile.sset
saved parameter file </home/optimi/bzfhende/opti/scip-opti/check/treesize.estimation.journal.3/bzfhende.miplib2017.124_neos-4532248-waihi.scip.M640.enable_treeprofile.set>
SCIP> read /nfs/optimi/kombadon/IP/miplib2017/neos-4532248-waihi.mps.gz

read problem </nfs/optimi/kombadon/IP/miplib2017/neos-4532248-waihi.mps.gz>
============

original problem has 86842 variables (86841 bin, 0 int, 0 impl, 1 cont) and 167322 constraints
SCIP> display parameters

number of parameters = 2448
non-default parameter settings:
display/freq = 10000
limits/time = 7200
limits/nodes = 2100000000
limits/memory = 50000
lp/threads = 1
memory/savefac = 1
misc/referencevalue = 61.6
presolving/maxrestarts = 0
estimates/profile/enabled = TRUE
estimates/profile/maxdepthfactor = 10
estimates/profile/freq = 0

SCIP> optimize

Activating tree profile data collection
presolving:
(round 1, fast)       3 del vars, 33 del conss, 0 add conss, 1 chg bounds, 83320 chg sides, 88675 chg coeffs, 0 upgd conss, 0 impls, 83384 clqs
(round 2, exhaustive) 3 del vars, 33 del conss, 0 add conss, 2 chg bounds, 83320 chg sides, 88675 chg coeffs, 84216 upgd conss, 0 impls, 83384 clqs
(round 3, fast)       578 del vars, 1182 del conss, 0 add conss, 2 chg bounds, 83354 chg sides, 90524 chg coeffs, 84216 upgd conss, 574 impls, 82809 clqs
   (3.0s) sparsify finished: 10/517587 (0.0%) nonzeros canceled - in total 10 canceled nonzeros, 10 changed coefficients, 0 added nonzeros
   (85.1s) probing: 1000/86263 (1.2%) - 2 fixings, 0 aggregations, 18728897 implications, 0 bound changes
   (85.8s) probing: 1008/86263 (1.2%) - 2 fixings, 0 aggregations, 18870438 implications, 0 bound changes
   (85.8s) probing aborted: 1000/1000 successive useless probings
presolving (4 rounds: 4 fast, 2 medium, 2 exhaustive):
 580 deleted vars, 1185 deleted constraints, 6 added constraints, 2 tightened bounds, 0 added holes, 83360 changed sides, 90561 changed coefficients
 1498 implications, 18955203 cliques
presolved problem has 86262 variables (86261 bin, 0 int, 0 impl, 1 cont) and 166143 constraints
    574 constraints of type <varbound>
    241 constraints of type <knapsack>
  82815 constraints of type <setppc>
  82501 constraints of type <linear>
     12 constraints of type <logicor>
Presolving Time: 85.57

 time | node  | left  |LP iter|LP it/n| mem |mdpt |frac |vars |cons |cols |rows |cuts |confs|strbr|  dualbound   | primalbound  |  gap   
 1915s|     1 |     0 |208395 |     - |3595M|   0 |  32k|  86k| 166k|  86k| 166k|   0 | 179 |   0 | 3.704202e-01 |      --      |    Inf 
 2607s|     1 |     0 |305529 |     - |3613M|   0 |  32k|  86k| 166k|  86k| 166k|   0 | 183 |   0 | 3.704202e-01 |      --      |    Inf 
 3163s|     1 |     0 |349534 |     - |3649M|   0 |  38k|  86k| 166k|  86k| 166k|  81 | 189 |   0 | 3.704202e-01 |      --      |    Inf 
 4028s|     1 |     0 |410338 |     - |3672M|   0 |  41k|  86k| 166k|  86k| 166k| 165 | 194 |   0 | 3.704202e-01 |      --      |    Inf 
 4855s|     1 |     0 |449825 |     - |3691M|   0 |  41k|  86k| 166k|  86k| 166k| 238 | 198 |   0 | 3.704202e-01 |      --      |    Inf 
 5737s|     1 |     0 |500978 |     - |3712M|   0 |  40k|  86k| 166k|  86k| 166k| 292 | 202 |   0 | 4.776467e-01 |      --      |    Inf 
 5741s|     1 |     0 |500978 |     - |3714M|   0 |  40k|  86k| 166k|  86k| 166k| 292 | 207 |   0 | 4.776467e-01 |      --      |    Inf 
 6555s|     1 |     0 |540260 |     - |3733M|   0 |  41k|  86k| 166k|  86k| 166k| 335 | 207 |   0 | 4.776467e-01 |      --      |    Inf 
 7229s|     1 |     0 |540260 |     - |3738M|   0 |   - |  86k| 166k|  86k| 166k| 365 | 211 |   0 | 4.776467e-01 |      --      |    Inf 
(node 1) LP solver hit time limit in LP 46 -- using pseudo solution instead

SCIP Status        : solving was interrupted [time limit reached]
Solving Time (sec) : 7229.19
Solving Nodes      : 1
Primal Bound       : +1.00000000000000e+20 (0 solutions)
Dual Bound         : +4.77646749093253e-01
Gap                : infinite

SCIP> display statistics

SCIP Status        : solving was interrupted [time limit reached]
Total Time         :    7229.62
  solving          :    7229.19
  presolving       :      85.57 (included in solving)
  reading          :       0.43
  copying          :       0.32 (1 #copies) (minimal 0.32, maximal 0.32, average 0.32)
Original Problem   :
  Problem name     : neos-4532248-waihi
  Variables        : 86842 (86841 binary, 0 integer, 0 implicit integer, 1 continuous)
  Constraints      : 167322 initial, 167322 maximal
  Objective        : minimize, 1 non-zeros (abs.min = 1, abs.max = 1)
Presolved Problem  :
  Problem name     : t_neos-4532248-waihi
  Variables        : 86262 (86261 binary, 0 integer, 0 implicit integer, 1 continuous)
  Constraints      : 166143 initial, 166354 maximal
  Objective        : minimize, 1 non-zeros (abs.min = 1, abs.max = 1)
Presolvers         :   ExecTime  SetupTime  Calls  FixedVars   AggrVars   ChgTypes  ChgBounds   AddHoles    DelCons    AddCons   ChgSides   ChgCoefs
  boundshift       :       0.00       0.00      0          0          0          0          0          0          0          0          0          0
  convertinttobin  :       0.00       0.00      0          0          0          0          0          0          0          0          0          0
  domcol           :       0.77       0.00      1          0          0          0          0          0          0          0          0          0
  dualagg          :       0.00       0.00      0          0          0          0          0          0          0          0          0          0
  dualcomp         :       0.14       0.00      1          0          0          0          0          0          0          0          0          0
  dualinfer        :       0.00       0.00      0          0          0          0          0          0          0          0          0          0
  gateextraction   :       0.07       0.00      1          0          0          0          0          0          0          0          0          0
  implics          :       0.02       0.00      2          0          0          0          0          0          0          0          0          0
  inttobinary      :       0.00       0.00      0          0          0          0          0          0          0          0          0          0
  qpkktref         :       0.00       0.00      0          0          0          0          0          0          0          0          0          0
  redvub           :       0.00       0.00      0          0          0          0          0          0          0          0          0          0
  sparsify         :       0.23       0.00      1          0          0          0          0          0          0          0          0         10
  stuffing         :       0.00       0.00      0          0          0          0          0          0          0          0          0          0
  symbreak         :       0.00       0.00      0          0          0          0          0          0          0          0          0          0
  symmetry         :       0.00       0.00      0          0          0          0          0          0          0          0          0          0
  trivial          :       0.03       0.00      4          0          0          0          0          0          0          0          0          0
  tworowbnd        :       0.00       0.00      0          0          0          0          0          0          0          0          0          0
  dualfix          :       0.01       0.00      4          0          0          0          0          0          0          0          0          0
  genvbounds       :       0.00       0.00      0          0          0          0          0          0          0          0          0          0
  orbitalfixing    :       0.00       0.00      0          0          0          0          0          0          0          0          0          0
  probing          :      82.77       0.01      1          2          0          0          0          0          0          0          0          0
  pseudoobj        :       0.00       0.00      0          0          0          0          0          0          0          0          0          0
  vbounds          :       0.04       0.00      1          0          0          0          0          0          0          0          0          0
  varbound         :       0.00       0.00      3          0          0          0          0          0          0          0          0          0
  knapsack         :       0.05       0.00      4          0          0          0          0          0          3          6         40       1876
  setppc           :       0.29       0.01      4        575          0          0          0          0        575          0          0          0
  linear           :       0.83       0.06      6          1          2          0          2          0        607          0      83320      88675
  logicor          :       0.00       0.00      4          0          0          0          0          0          0          0          0          0
  benders          :       0.00       0.00      0          0          0          0          0          0          0          0          0          0
  components       :       0.06       0.00      1          0          0          0          0          0          0          0          0          0
  root node        :          -          -      -          0          -          -          2          -          -          -          -          -
Constraints        :     Number  MaxNumber  #Separate #Propagate    #EnfoLP    #EnfoRelax  #EnfoPS    #Check   #ResProp    Cutoffs    DomReds       Cuts    Applied      Conss   Children
  benderslp        :          0          0          0          0          0          0          0          9          0          0          0          0          0          0          0
  integral         :          0          0          0          0          0          0          0          9          0          0          0          0          0          0          0
  varbound         :        574        574          6      37290          0          0          0          4          0          0          0          0          0          0          0
  knapsack         :        241        241          6      77055          0          0          0          4       2920         32          0       1158        235          0          0
  setppc           :      82815+     82886          6      77023          0          0          0          1       3453         26          0         14          5          0          0
  linear           :      82501      82501          6      76997          0          0          0          0       1180         40          0          0          0          0          0
  logicor          :         12+       152          6        525          0          0          0          0         12          1          0          1          0          0          0
  benders          :          0          0          0          0          0          0          0          0          0          0          0          0          0          0          0
  countsols        :          0          0          0          0          0          0          0          0          0          0          0          0          0          0          0
  components       :          0          0          0          0          0          0          0          0          0          0          0          0          0          0          0
Constraint Timings :  TotalTime  SetupTime   Separate  Propagate     EnfoLP     EnfoPS     EnfoRelax   Check    ResProp    SB-Prop
  benderslp        :       0.00       0.00       0.00       0.00       0.00       0.00       0.00       0.00       0.00       0.00
  integral         :       0.00       0.00       0.00       0.00       0.00       0.00       0.00       0.00       0.00       0.00
  varbound         :       0.16       0.00       0.00       0.15       0.00       0.00       0.00       0.01       0.00       0.00
  knapsack         :       1.14       0.00       0.14       0.99       0.00       0.00       0.00       0.00       0.01       0.00
  setppc           :      12.48       0.01       0.07      12.39       0.00       0.00       0.00       0.00       0.01       0.00
  linear           :      17.39       0.06       0.05      17.27       0.00       0.00       0.00       0.00       0.01       0.00
  logicor          :       0.03       0.00       0.00       0.03       0.00       0.00       0.00       0.00       0.00       0.00
  benders          :       0.00       0.00       0.00       0.00       0.00       0.00       0.00       0.00       0.00       0.00
  countsols        :       0.00       0.00       0.00       0.00       0.00       0.00       0.00       0.00       0.00       0.00
  components       :       0.03       0.00       0.00       0.03       0.00       0.00       0.00       0.00       0.00       0.00
Propagators        : #Propagate   #ResProp    Cutoffs    DomReds
  dualfix          :          1          0          0          0
  genvbounds       :          0          0          0          0
  nlobbt           :          0          0          0          0
  obbt             :          0          0          0          0
  orbitalfixing    :          0          0          0          0
  probing          :          0          0          0          0
  pseudoobj        :         11          0          0          2
  redcost          :          6          0          0          0
  rootredcost      :          0          0          0          0
  vbounds          :      73925          0          0          0
Propagator Timings :  TotalTime  SetupTime   Presolve  Propagate    ResProp    SB-Prop
  dualfix          :       0.02       0.00       0.01       0.01       0.00       0.00
  genvbounds       :       0.00       0.00       0.00       0.00       0.00       0.00
  nlobbt           :       0.00       0.00       0.00       0.00       0.00       0.00
  obbt             :       0.00       0.00       0.00       0.00       0.00       0.00
  orbitalfixing    :       0.03       0.00       0.00       0.03       0.00       0.00
  probing          :      82.78       0.01      82.77       0.00       0.00       0.00
  pseudoobj        :       7.47       0.00       0.00       7.47       0.00       0.00
  redcost          :       0.05       0.00       0.00       0.05       0.00       0.00
  rootredcost      :       0.03       0.00       0.00       0.03       0.00       0.00
  vbounds          :       0.12       0.00       0.04       0.08       0.00       0.00
Conflict Analysis  :       Time      Calls    Success    DomReds  Conflicts   Literals    Reconvs ReconvLits   Dualrays   Nonzeros   LP Iters   (pool size: [10000,10000])
  propagation      :       0.06         64         64          -        484       52.9         64        7.8          -          -          -
  infeasible LP    :       0.00          0          0          -          0        0.0          0        0.0          0        0.0          0
  bound exceed. LP :       0.00          0          0          -          0        0.0          0        0.0          0        0.0          0
  strong branching :       0.00          0          0          -          0        0.0          0        0.0          -          -          0
  pseudo solution  :       0.00          0          0          -          0        0.0          0        0.0          -          -          -
  applied globally :       0.05          -          -          0        211       33.2          -          -          0          -          -
  applied locally  :          -          -          -          0          0        0.0          -          -          0          -          -
Separators         :   ExecTime  SetupTime      Calls    Cutoffs    DomReds       Cuts    Applied      Conss
  cut pool         :       0.02                    11          -          -       1237          -          -    (maximal pool size: 5178)
  aggregation      :      47.87       0.00          6          0          0          0          0          0
  cgmip            :       0.00       0.00          0          0          0          0          0          0
  clique           :    3262.07       0.00          6          0          0          0          0          0
  closecuts        :       0.00       0.00          0          0          0          0          0          0
  cmir             :       0.00       0.00          0          0          0          0          4          0
  convexproj       :       0.00       0.00          0          0          0          0          0          0
  disjunctive      :       0.00       0.00          0          0          0          0          0          0
  eccuts           :       0.00       0.00          0          0          0          0          0          0
  flowcover        :       0.00       0.00          0          0          0          0          0          0
  gauge            :       0.00       0.00          0          0          0          0          0          0
  gomory           :      20.71       0.00          6          0          0          0          2          0
  impliedbounds    :       8.20       0.00          6          0          0          0        116          0
  intobj           :       0.00       0.00          0          0          0          0          0          0
  mcf              :       0.09       0.00          1          0          0          0          0          0
  oddcycle         :       0.00       0.00          0          0          0          0          0          0
  rapidlearning    :       0.00       0.00          0          0          0          0          0          0
  strongcg         :      13.18       0.00          6          0          0          0          0          0
  zerohalf         :      22.84       0.00          5          0          0          0          3          0
Pricers            :   ExecTime  SetupTime      Calls       Vars
  problem variables:       0.00          -          0          0
Branching Rules    :   ExecTime  SetupTime   BranchLP  BranchExt   BranchPS    Cutoffs    DomReds       Cuts      Conss   Children
  allfullstrong    :       0.00       0.00          0          0          0          0          0          0          0          0
  cloud            :       0.00       0.00          0          0          0          0          0          0          0          0
  distribution     :       0.00       0.00          0          0          0          0          0          0          0          0
  fullstrong       :       0.00       0.00          0          0          0          0          0          0          0          0
  inference        :       0.00       0.00          0          0          0          0          0          0          0          0
  leastinf         :       0.00       0.00          0          0          0          0          0          0          0          0
  lookahead        :       0.00       0.00          0          0          0          0          0          0          0          0
  mostinf          :       0.00       0.00          0          0          0          0          0          0          0          0
  multaggr         :       0.00       0.00          0          0          0          0          0          0          0          0
  nodereopt        :       0.00       0.00          0          0          0          0          0          0          0          0
  pscost           :       0.00       0.00          0          0          0          0          0          0          0          0
  random           :       0.00       0.00          0          0          0          0          0          0          0          0
  relpscost        :       0.00       0.00          0          0          0          0          0          0          0          0
Primal Heuristics  :   ExecTime  SetupTime      Calls      Found       Best
  LP solutions     :       0.00          -          -          0          0
  relax solutions  :       0.00          -          -          0          0
  pseudo solutions :       0.00          -          -          0          0
  strong branching :       0.00          -          -          0          0
  actconsdiving    :       0.00       0.00          0          0          0
  alns             :       0.00       0.00          0          0          0
  bound            :       0.00       0.00          0          0          0
  clique           :     904.54       0.00          1          0          0
  coefdiving       :       0.00       0.00          0          0          0
  completesol      :       0.00       0.00          0          0          0
  conflictdiving   :       0.00       0.00          0          0          0
  crossover        :       0.00       0.00          0          0          0
  dins             :       0.00       0.00          0          0          0
  distributiondivin:       0.00       0.00          0          0          0
  dualval          :       0.00       0.00          0          0          0
  farkasdiving     :       0.00       0.00          0          0          0
  feaspump         :     687.21       0.00          1          0          0
  fixandinfer      :       0.00       0.00          0          0          0
  fracdiving       :       0.00       0.00          0          0          0
  gins             :       0.00       0.00          0          0          0
  guideddiving     :       0.00       0.00          0          0          0
  indicator        :       0.00       0.00          0          0          0
  intdiving        :       0.00       0.00          0          0          0
  intshifting      :       0.00       0.00          0          0          0
  linesearchdiving :       0.00       0.00          0          0          0
  localbranching   :       0.00       0.00          0          0          0
  locks            :       0.26       0.00          1          0          0
  lpface           :       0.00       0.00          0          0          0
  mpec             :       0.00       0.00          0          0          0
  multistart       :       0.00       0.00          0          0          0
  mutation         :       0.00       0.00          0          0          0
  nlpdiving        :       0.00       0.00          0          0          0
  objpscostdiving  :       0.00       0.00          0          0          0
  octane           :       0.00       0.00          0          0          0
  ofins            :       0.00       0.00          0          0          0
  oneopt           :       0.00       0.00          0          0          0
  proximity        :       0.00       0.00          0          0          0
  pscostdiving     :       0.00       0.00          0          0          0
  randrounding     :      17.86       0.00          7          0          0
  rens             :       0.00       0.00          0          0          0
  reoptsols        :       0.00       0.00          0          0          0
  repair           :       0.00       0.00          0          0          0
  rins             :       0.00       0.00          0          0          0
  rootsoldiving    :       0.00       0.00          0          0          0
  rounding         :       0.07       0.00          7          0          0
  shiftandpropagate:       0.93       0.00          1          0          0
  shifting         :       3.82       0.00          7          0          0
  simplerounding   :       0.00       0.00          0          0          0
  subnlp           :       0.00       0.00          0          0          0
  trivial          :       0.18       0.00          2          0          0
  trivialnegation  :       0.00       0.00          0          0          0
  trysol           :       0.00       0.00          0          0          0
  twoopt           :       0.00       0.00          0          0          0
  undercover       :       0.00       0.00          0          0          0
  vbounds          :       3.71       0.00          1          0          0
  veclendiving     :       0.00       0.00          0          0          0
  zeroobj          :       0.00       0.00          0          0          0
  zirounding       :       0.00       0.00          0          0          0
  other solutions  :          -          -          -          0          -
Diving Statistics  :      Calls      Nodes   LP Iters Backtracks  Conflicts   MinDepth   MaxDepth   AvgDepth  RoundSols  NLeafSols  MinSolDpt  MaxSolDpt  AvgSolDpt
  actconsdiving    :          0          -          -          -          -          -          -          -          -          -          -          -          -
  coefdiving       :          0          -          -          -          -          -          -          -          -          -          -          -          -
  conflictdiving   :          0          -          -          -          -          -          -          -          -          -          -          -          -
  distributiondivin:          0          -          -          -          -          -          -          -          -          -          -          -          -
  farkasdiving     :          0          -          -          -          -          -          -          -          -          -          -          -          -
  fracdiving       :          0          -          -          -          -          -          -          -          -          -          -          -          -
  guideddiving     :          0          -          -          -          -          -          -          -          -          -          -          -          -
  linesearchdiving :          0          -          -          -          -          -          -          -          -          -          -          -          -
  pscostdiving     :          0          -          -          -          -          -          -          -          -          -          -          -          -
  veclendiving     :          0          -          -          -          -          -          -          -          -          -          -          -          -
Neighborhoods      :      Calls  SetupTime  SolveTime SolveNodes       Sols       Best       Exp3  EpsGreedy        UCB TgtFixRate  Opt  Inf Node Stal  Sol  Usr Othr Actv
  rens             :          0       0.00       0.00          0          0          0    0.00000   -1.00000    1.00000      0.900    0    0    0    0    0    0    0    1
  rins             :          0       0.00       0.00          0          0          0    0.00000   -1.00000    1.00000      0.900    0    0    0    0    0    0    0    1
  mutation         :          0       0.00       0.00          0          0          0    0.00000   -1.00000    1.00000      0.900    0    0    0    0    0    0    0    1
  localbranching   :          0       0.00       0.00          0          0          0    0.00000   -1.00000    1.00000      0.900    0    0    0    0    0    0    0    1
  crossover        :          0       0.00       0.00          0          0          0    0.00000   -1.00000    1.00000      0.900    0    0    0    0    0    0    0    1
  proximity        :          0       0.00       0.00          0          0          0    0.00000   -1.00000    1.00000      0.900    0    0    0    0    0    0    0    1
  zeroobjective    :          0       0.00       0.00          0          0          0    0.00000   -1.00000    1.00000      0.900    0    0    0    0    0    0    0    1
  dins             :          0       0.00       0.00          0          0          0    0.00000   -1.00000    1.00000      0.900    0    0    0    0    0    0    0    1
LP                 :       Time      Calls Iterations  Iter/call   Iter/sec  Time-0-It Calls-0-It    ItLimit
  primal LP        :       0.00          0          0       0.00          -       0.00          0
  dual LP          :    2115.68          8     440810   73468.33     208.35       0.03          2
  lex dual LP      :       0.00          0          0       0.00          -
  barrier LP       :       0.00          0          0       0.00          -       0.00          0
  resolve instable :       0.00          0          0       0.00          -
  diving/probing LP:     702.42         40      99450    2486.25     141.58
  strong branching :       0.00          0          0       0.00          -          -          -          0
    (at root node) :          -          0          0       0.00          -
  conflict analysis:       0.00          0          0       0.00          -
B&B Tree           :
  number of runs   :          1
  nodes            :          1 (0 internal, 1 leaves)
  feasible leaves  :          0
  infeas. leaves   :          0
  objective leaves :          0
  nodes (total)    :          1 (0 internal, 1 leaves)
  nodes left       :          1
  max depth        :          0
  max depth (total):          0
  backtracks       :          0 (0.0%)
  early backtracks :          0 (0.0%)
  nodes exc. ref.  :          0 (0.0%)
  delayed cutoffs  :          0
  repropagations   :          0 (0 domain reductions, 0 cutoffs)
  avg switch length:       1.00
  switching time   :       0.00
Root Node          :
  First LP value   : +3.70420216921062e-01
  First LP Iters   :     206079 (226.76 Iter/sec)
  First LP Time    :     908.81
  Final Dual Bound : +4.77646749093253e-01
  Final Root Iters :     537944
  Root LP Estimate :                     -
Solution           :
  Solutions found  :          0 (0 improvements)
  Primal Bound     :          -
  Dual Bound       : +4.77646749093253e-01
  Gap              :   infinite
  Avg. Gap         :     100.00 % (722919.00 primal-dual integral)
  Tree Data        : 1 nodes (0 visited, 0 inner, 0 leaves, 1 open), progress: 0.0000
Tree Estimation    :       estim       value       trend  resolution      smooth
  wbe              :          -1           -           -           -           -
  tree profile     :          -1           -           -           -           -
  gap              :          -1     0.00000 999999999999999967336168804116691273849533185806555472917961779471295845921727862608739868455469056.00000           1 999999999999999967336168804116691273849533185806555472917961779471295845921727862608739868455469056
  progress         :          -1     0.00000 999999999999999967336168804116691273849533185806555472917961779471295845921727862608739868455469056.00000           1 999999999999999967336168804116691273849533185806555472917961779471295845921727862608739868455469056
  leaf-frequency   :          -1    -0.50000 999999999999999967336168804116691273849533185806555472917961779471295845921727862608739868455469056.00000           1 999999999999999967336168804116691273849533185806555472917961779471295845921727862608739868455469056
  ssg              :          -1     1.00000 999999999999999967336168804116691273849533185806555472917961779471295845921727862608739868455469056.00000           1 999999999999999967336168804116691273849533185806555472917961779471295845921727862608739868455469056
  open-nodes       :          -1     0.00000 999999999999999967336168804116691273849533185806555472917961779471295845921727862608739868455469056.00000           1 999999999999999967336168804116691273849533185806555472917961779471295845921727862608739868455469056

@04 1566492171
-----------------------------
Do 22. Aug 18:42:51 CEST 2019
-----------------------------

=ready=
